65
1 0 5
2 0 3
2 1 2
3 0 3
3 1 3
3 2 4
4 0 3
4 1 5
4 2 5
4 3 3
5 0 2
5 1 5
5 2 3
5 3 2
5 4 3
6 0 5
6 1 3
6 2 5
6 3 1
6 4 5
6 5 3
7 0 5
7 1 3
7 2 1
7 3 5
7 4 1
7 5 4
7 6 2
8 0 2
8 1 3
8 2 3
8 3 3
8 4 1
8 5 2
8 6 1
8 7 1
9 0 1
9 1 1
9 2 3
9 3 2
9 4 2
9 5 5
9 6 5
9 7 1
9 8 3
10 0 2
10 1 2
10 2 3
10 3 2
10 4 1
10 5 3
10 6 2
10 7 1
10 8 2
10 9 1
11 0 4
11 1 5
11 2 1
11 3 4
11 4 2
11 5 1
11 6 2
11 7 2
11 8 2
11 9 4
11 10 5
12 0 3
12 1 2
12 2 1
12 3 5
12 4 3
12 5 3
12 6 1
12 7 3
12 8 2
12 9 1
12 10 2
12 11 5
13 0 1
13 1 5
13 2 2
13 3 4
13 4 2
13 5 5
13 6 3
13 7 1
13 8 3
13 9 5
13 10 3
13 11 2
13 12 1
14 0 1
14 1 5
14 2 3
14 3 4
14 4 1
14 5 2
14 6 3
14 7 2
14 8 2
14 9 1
14 10 1
14 11 3
14 12 4
14 13 2
15 0 2
15 1 1
15 2 4
15 3 3
15 4 3
15 5 5
15 6 1
15 7 5
15 8 2
15 9 1
15 10 3
15 11 2
15 12 3
15 13 4
15 14 4
16 0 2
16 1 3
16 2 1
16 3 2
16 4 3
16 5 2
16 6 2
16 7 2
16 8 1
16 9 4
16 10 2
16 11 2
16 12 5
16 13 3
16 14 1
16 15 2
17 0 2
17 1 2
17 2 5
17 3 1
17 4 3
17 5 5
17 6 3
17 7 1
17 8 5
17 9 3
17 10 3
17 11 2
17 12 5
17 13 4
17 14 4
17 15 3
17 16 3
18 0 5
18 1 2
18 2 5
18 3 1
18 4 3
18 5 1
18 6 4
18 7 1
18 8 2
18 9 1
18 10 3
18 11 1
18 12 3
18 13 3
18 14 4
18 15 2
18 16 5
18 17 3
19 0 5
19 1 2
19 2 3
19 3 2
19 4 3
19 5 5
19 6 1
19 7 5
19 8 2
19 9 5
19 10 4
19 11 4
19 12 1
19 13 4
19 14 1
19 15 4
19 16 2
19 17 3
19 18 1
20 0 1
20 1 4
20 2 3
20 3 1
20 4 2
20 5 1
20 6 1
20 7 5
20 8 3
20 9 4
20 10 2
20 11 2
20 12 4
20 13 2
20 14 5
20 15 4
20 16 3
20 17 3
20 18 5
20 19 2
21 0 1
21 1 5
21 2 2
21 3 1
21 4 5
21 5 1
21 6 2
21 7 4
21 8 2
21 9 5
21 10 5
21 11 1
21 12 4
21 13 4
21 14 4
21 15 1
21 16 2
21 17 4
21 18 5
21 19 3
21 20 2
22 0 5
22 1 2
22 2 2
22 3 5
22 4 1
22 5 4
22 6 4
22 7 5
22 8 1
22 9 5
22 10 3
22 11 3
22 12 2
22 13 5
22 14 5
22 15 5
22 16 2
22 17 3
22 18 3
22 19 2
22 20 1
22 21 2
23 0 5
23 1 5
23 2 1
23 3 3
23 4 2
23 5 4
23 6 2
23 7 3
23 8 3
23 9 2
23 10 3
23 11 1
23 12 2
23 13 1
23 14 4
23 15 3
23 16 1
23 17 3
23 18 3
23 19 2
23 20 3
23 21 5
23 22 1
24 0 1
24 1 1
24 2 3
24 3 4
24 4 2
24 5 2
24 6 1
24 7 4
24 8 2
24 9 4
24 10 4
24 11 3
24 12 1
24 13 4
24 14 4
24 15 5
24 16 1
24 17 2
24 18 2
24 19 5
24 20 1
24 21 2
24 22 4
24 23 5
25 0 2
25 1 2
25 2 5
25 3 4
25 4 2
25 5 1
25 6 2
25 7 5
25 8 1
25 9 5
25 10 1
25 11 1
25 12 4
25 13 3
25 14 4
25 15 2
25 16 4
25 17 5
25 18 2
25 19 3
25 20 5
25 21 2
25 22 2
25 23 2
25 24 2
26 0 3
26 1 5
26 2 1
26 3 2
26 4 4
26 5 1
26 6 2
26 7 2
26 8 1
26 9 4
26 10 4
26 11 3
26 12 3
26 13 5
26 14 5
26 15 5
26 16 3
26 17 2
26 18 2
26 19 2
26 20 3
26 21 2
26 22 5
26 23 2
26 24 3
26 25 5
27 0 1
27 1 2
27 2 5
27 3 3
27 4 3
27 5 2
27 6 3
27 7 5
27 8 4
27 9 2
27 10 4
27 11 4
27 12 3
27 13 4
27 14 3
27 15 1
27 16 3
27 17 1
27 18 3
27 19 1
27 20 1
27 21 3
27 22 5
27 23 4
27 24 1
27 25 5
27 26 3
28 0 5
28 1 5
28 2 5
28 3 3
28 4 1
28 5 5
28 6 5
28 7 4
28 8 4
28 9 1
28 10 3
28 11 4
28 12 3
28 13 2
28 14 2
28 15 5
28 16 3
28 17 4
28 18 5
28 19 5
28 20 5
28 21 4
28 22 2
28 23 3
28 24 2
28 25 4
28 26 1
28 27 4
29 0 1
29 1 3
29 2 1
29 3 1
29 4 3
29 5 4
29 6 2
29 7 1
29 8 2
29 9 5
29 10 5
29 11 2
29 12 1
29 13 5
29 14 2
29 15 4
29 16 2
29 17 5
29 18 5
29 19 1
29 20 4
29 21 5
29 22 4
29 23 2
29 24 5
29 25 4
29 26 3
29 27 5
29 28 3
30 0 5
30 1 1
30 2 5
30 3 2
30 4 5
30 5 2
30 6 3
30 7 3
30 8 4
30 9 2
30 10 3
30 11 5
30 12 4
30 13 5
30 14 4
30 15 2
30 16 4
30 17 3
30 18 2
30 19 3
30 20 5
30 21 4
30 22 5
30 23 2
30 24 4
30 25 3
30 26 5
30 27 2
30 28 3
30 29 3
31 0 2
31 1 2
31 2 3
31 3 2
31 4 2
31 5 4
31 6 1
31 7 3
31 8 1
31 9 2
31 10 3
31 11 2
31 12 1
31 13 2
31 14 1
31 15 2
31 16 3
31 17 4
31 18 1
31 19 2
31 20 5
31 21 4
31 22 2
31 23 2
31 24 1
31 25 5
31 26 4
31 27 2
31 28 5
31 29 3
31 30 2
32 0 1
32 1 5
32 2 3
32 3 2
32 4 3
32 5 3
32 6 3
32 7 4
32 8 2
32 9 1
32 10 5
32 11 1
32 12 2
32 13 4
32 14 2
32 15 5
32 16 2
32 17 3
32 18 3
32 19 3
32 20 3
32 21 3
32 22 1
32 23 2
32 24 4
32 25 5
32 26 4
32 27 4
32 28 1
32 29 3
32 30 4
32 31 1
33 0 4
33 1 2
33 2 2
33 3 4
33 4 3
33 5 4
33 6 5
33 7 2
33 8 5
33 9 2
33 10 1
33 11 4
33 12 1
33 13 3
33 14 4
33 15 2
33 16 4
33 17 4
33 18 5
33 19 2
33 20 5
33 21 1
33 22 2
33 23 1
33 24 4
33 25 1
33 26 1
33 27 3
33 28 5
33 29 3
33 30 2
33 31 2
33 32 5
34 0 5
34 1 5
34 2 3
34 3 5
34 4 2
34 5 3
34 6 4
34 7 4
34 8 1
34 9 4
34 10 5
34 11 3
34 12 1
34 13 3
34 14 1
34 15 3
34 16 3
34 17 3
34 18 1
34 19 5
34 20 5
34 21 1
34 22 5
34 23 4
34 24 2
34 25 2
34 26 2
34 27 2
34 28 3
34 29 1
34 30 5
34 31 5
34 32 4
34 33 5
35 0 2
35 1 4
35 2 5
35 3 1
35 4 2
35 5 2
35 6 5
35 7 5
35 8 1
35 9 1
35 10 2
35 11 3
35 12 5
35 13 1
35 14 1
35 15 3
35 16 5
35 17 4
35 18 3
35 19 1
35 20 2
35 21 4
35 22 1
35 23 5
35 24 5
35 25 4
35 26 5
35 27 3
35 28 2
35 29 2
35 30 5
35 31 1
35 32 4
35 33 3
35 34 2
36 0 2
36 1 5
36 2 2
36 3 4
36 4 3
36 5 5
36 6 4
36 7 5
36 8 3
36 9 5
36 10 2
36 11 5
36 12 5
36 13 3
36 14 2
36 15 1
36 16 2
36 17 2
36 18 5
36 19 4
36 20 2
36 21 5
36 22 5
36 23 2
36 24 2
36 25 3
36 26 5
36 27 5
36 28 3
36 29 4
36 30 1
36 31 3
36 32 4
36 33 5
36 34 1
36 35 3
37 0 2
37 1 3
37 2 1
37 3 2
37 4 1
37 5 4
37 6 1
37 7 5
37 8 4
37 9 2
37 10 2
37 11 1
37 12 4
37 13 5
37 14 3
37 15 3
37 16 4
37 17 1
37 18 3
37 19 5
37 20 1
37 21 2
37 22 1
37 23 2
37 24 4
37 25 4
37 26 4
37 27 4
37 28 3
37 29 1
37 30 3
37 31 3
37 32 5
37 33 2
37 34 2
37 35 1
37 36 4
38 0 4
38 1 2
38 2 1
38 3 3
38 4 4
38 5 2
38 6 5
38 7 3
38 8 3
38 9 2
38 10 4
38 11 2
38 12 3
38 13 3
38 14 4
38 15 2
38 16 1
38 17 2
38 18 2
38 19 3
38 20 5
38 21 2
38 22 2
38 23 3
38 24 1
38 25 1
38 26 5
38 27 1
38 28 5
38 29 3
38 30 2
38 31 4
38 32 3
38 33 1
38 34 5
38 35 3
38 36 3
38 37 3
39 0 1
39 1 5
39 2 1
39 3 5
39 4 4
39 5 4
39 6 4
39 7 5
39 8 5
39 9 3
39 10 3
39 11 1
39 12 2
39 13 1
39 14 5
39 15 2
39 16 2
39 17 4
39 18 4
39 19 2
39 20 4
39 21 3
39 22 1
39 23 4
39 24 4
39 25 4
39 26 1
39 27 2
39 28 4
39 29 5
39 30 1
39 31 3
39 32 1
39 33 3
39 34 4
39 35 5
39 36 2
39 37 2
39 38 2
40 0 3
40 1 5
40 2 2
40 3 2
40 4 1
40 5 3
40 6 1
40 7 3
40 8 3
40 9 3
40 10 2
40 11 3
40 12 5
40 13 4
40 14 5
40 15 2
40 16 1
40 17 4
40 18 2
40 19 2
40 20 4
40 21 5
40 22 2
40 23 3
40 24 5
40 25 2
40 26 1
40 27 2
40 28 3
40 29 2
40 30 5
40 31 2
40 32 2
40 33 3
40 34 5
40 35 5
40 36 4
40 37 4
40 38 4
40 39 1
41 0 5
41 1 1
41 2 1
41 3 2
41 4 2
41 5 3
41 6 2
41 7 3
41 8 4
41 9 5
41 10 3
41 11 4
41 12 2
41 13 4
41 14 2
41 15 1
41 16 4
41 17 1
41 18 1
41 19 1
41 20 2
41 21 5
41 22 3
41 23 1
41 24 1
41 25 5
41 26 3
41 27 3
41 28 1
41 29 1
41 30 5
41 31 2
41 32 3
41 33 5
41 34 3
41 35 4
41 36 2
41 37 2
41 38 1
41 39 1
41 40 3
42 0 1
42 1 2
42 2 5
42 3 3
42 4 2
42 5 3
42 6 5
42 7 4
42 8 2
42 9 3
42 10 2
42 11 4
42 12 5
42 13 1
42 14 3
42 15 5
42 16 3
42 17 5
42 18 3
42 19 5
42 20 4
42 21 1
42 22 4
42 23 5
42 24 2
42 25 4
42 26 5
42 27 5
42 28 5
42 29 4
42 30 5
42 31 4
42 32 5
42 33 3
42 34 2
42 35 3
42 36 3
42 37 5
42 38 1
42 39 4
42 40 5
42 41 1
43 0 4
43 1 3
43 2 2
43 3 4
43 4 4
43 5 3
43 6 3
43 7 2
43 8 2
43 9 2
43 10 1
43 11 3
43 12 5
43 13 3
43 14 3
43 15 2
43 16 3
43 17 2
43 18 1
43 19 1
43 20 2
43 21 4
43 22 5
43 23 5
43 24 5
43 25 3
43 26 4
43 27 4
43 28 2
43 29 5
43 30 3
43 31 1
43 32 1
43 33 3
43 34 4
43 35 4
43 36 4
43 37 1
43 38 4
43 39 5
43 40 5
43 41 3
43 42 2
44 0 2
44 1 3
44 2 3
44 3 3
44 4 5
44 5 4
44 6 5
44 7 4
44 8 1
44 9 1
44 10 4
44 11 5
44 12 2
44 13 5
44 14 3
44 15 5
44 16 1
44 17 4
44 18 2
44 19 1
44 20 1
44 21 5
44 22 5
44 23 2
44 24 4
44 25 1
44 26 5
44 27 2
44 28 2
44 29 1
44 30 3
44 31 4
44 32 4
44 33 1
44 34 1
44 35 5
44 36 3
44 37 3
44 38 1
44 39 3
44 40 3
44 41 3
44 42 3
44 43 5
45 0 3
45 1 5
45 2 2
45 3 2
45 4 5
45 5 3
45 6 2
45 7 3
45 8 1
45 9 5
45 10 3
45 11 2
45 12 4
45 13 1
45 14 4
45 15 5
45 16 4
45 17 4
45 18 1
45 19 1
45 20 3
45 21 5
45 22 3
45 23 3
45 24 3
45 25 4
45 26 5
45 27 5
45 28 4
45 29 3
45 30 3
45 31 1
45 32 2
45 33 2
45 34 2
45 35 5
45 36 3
45 37 5
45 38 4
45 39 2
45 40 1
45 41 2
45 42 1
45 43 3
45 44 4
46 0 4
46 1 5
46 2 5
46 3 1
46 4 3
46 5 3
46 6 4
46 7 4
46 8 3
46 9 5
46 10 1
46 11 2
46 12 1
46 13 5
46 14 2
46 15 4
46 16 3
46 17 1
46 18 3
46 19 2
46 20 3
46 21 2
46 22 2
46 23 1
46 24 3
46 25 2
46 26 1
46 27 4
46 28 1
46 29 3
46 30 1
46 31 4
46 32 1
46 33 2
46 34 2
46 35 4
46 36 3
46 37 4
46 38 1
46 39 5
46 40 4
46 41 5
46 42 3
46 43 2
46 44 2
46 45 2
47 0 2
47 1 2
47 2 5
47 3 3
47 4 5
47 5 5
47 6 5
47 7 4
47 8 5
47 9 4
47 10 3
47 11 4
47 12 2
47 13 4
47 14 4
47 15 4
47 16 5
47 17 2
47 18 5
47 19 4
47 20 2
47 21 2
47 22 2
47 23 3
47 24 3
47 25 2
47 26 2
47 27 5
47 28 2
47 29 2
47 30 2
47 31 1
47 32 4
47 33 2
47 34 4
47 35 5
47 36 3
47 37 5
47 38 2
47 39 2
47 40 4
47 41 3
47 42 1
47 43 1
47 44 2
47 45 5
47 46 1
48 0 4
48 1 3
48 2 1
48 3 2
48 4 3
48 5 2
48 6 3
48 7 1
48 8 5
48 9 1
48 10 2
48 11 2
48 12 1
48 13 1
48 14 3
48 15 2
48 16 4
48 17 2
48 18 5
48 19 2
48 20 2
48 21 2
48 22 4
48 23 4
48 24 2
48 25 5
48 26 4
48 27 2
48 28 4
48 29 5
48 30 5
48 31 1
48 32 5
48 33 1
48 34 1
48 35 2
48 36 3
48 37 3
48 38 5
48 39 4
48 40 2
48 41 3
48 42 4
48 43 4
48 44 5
48 45 1
48 46 2
48 47 4
49 0 1
49 1 5
49 2 1
49 3 1
49 4 1
49 5 4
49 6 2
49 7 4
49 8 3
49 9 2
49 10 3
49 11 3
49 12 5
49 13 2
49 14 4
49 15 5
49 16 5
49 17 4
49 18 3
49 19 1
49 20 1
49 21 1
49 22 4
49 23 3
49 24 5
49 25 2
49 26 1
49 27 5
49 28 1
49 29 2
49 30 2
49 31 3
49 32 5
49 33 3
49 34 3
49 35 4
49 36 5
49 37 5
49 38 1
49 39 5
49 40 3
49 41 4
49 42 3
49 43 5
49 44 5
49 45 1
49 46 5
49 47 5
49 48 5
50 0 5
50 1 1
50 2 5
50 3 1
50 4 2
50 5 4
50 6 3
50 7 1
50 8 5
50 9 1
50 10 4
50 11 3
50 12 5
50 13 4
50 14 3
50 15 1
50 16 3
50 17 3
50 18 4
50 19 1
50 20 4
50 21 3
50 22 2
50 23 3
50 24 4
50 25 4
50 26 1
50 27 2
50 28 1
50 29 3
50 30 1
50 31 5
50 32 1
50 33 4
50 34 5
50 35 5
50 36 5
50 37 3
50 38 5
50 39 2
50 40 4
50 41 5
50 42 2
50 43 4
50 44 5
50 45 4
50 46 4
50 47 4
50 48 2
50 49 3
51 0 1
51 1 1
51 2 2
51 3 5
51 4 2
51 5 3
51 6 1
51 7 4
51 8 5
51 9 3
51 10 2
51 11 1
51 12 4
51 13 4
51 14 5
51 15 1
51 16 5
51 17 1
51 18 2
51 19 4
51 20 4
51 21 4
51 22 1
51 23 4
51 24 1
51 25 5
51 26 2
51 27 3
51 28 4
51 29 3
51 30 1
51 31 4
51 32 4
51 33 5
51 34 2
51 35 2
51 36 3
51 37 3
51 38 3
51 39 4
51 40 3
51 41 4
51 42 4
51 43 2
51 44 3
51 45 2
51 46 1
51 47 1
51 48 4
51 49 4
51 50 5
52 0 5
52 1 4
52 2 5
52 3 5
52 4 3
52 5 5
52 6 3
52 7 3
52 8 2
52 9 2
52 10 2
52 11 1
52 12 3
52 13 1
52 14 5
52 15 2
52 16 3
52 17 1
52 18 2
52 19 4
52 20 3
52 21 5
52 22 1
52 23 5
52 24 3
52 25 1
52 26 2
52 27 5
52 28 3
52 29 2
52 30 4
52 31 5
52 32 3
52 33 3
52 34 1
52 35 3
52 36 5
52 37 4
52 38 3
52 39 1
52 40 4
52 41 4
52 42 4
52 43 3
52 44 2
52 45 1
52 46 1
52 47 3
52 48 4
52 49 2
52 50 5
52 51 5
53 0 4
53 1 4
53 2 3
53 3 5
53 4 1
53 5 4
53 6 5
53 7 5
53 8 4
53 9 4
53 10 1
53 11 1
53 12 4
53 13 3
53 14 1
53 15 1
53 16 3
53 17 4
53 18 1
53 19 3
53 20 2
53 21 2
53 22 1
53 23 4
53 24 3
53 25 5
53 26 4
53 27 1
53 28 4
53 29 5
53 30 2
53 31 4
53 32 3
53 33 5
53 34 1
53 35 2
53 36 2
53 37 5
53 38 5
53 39 2
53 40 2
53 41 5
53 42 3
53 43 5
53 44 5
53 45 5
53 46 3
53 47 5
53 48 4
53 49 1
53 50 1
53 51 3
53 52 5
54 0 5
54 1 3
54 2 1
54 3 5
54 4 3
54 5 2
54 6 4
54 7 1
54 8 1
54 9 4
54 10 3
54 11 2
54 12 1
54 13 4
54 14 2
54 15 5
54 16 5
54 17 4
54 18 3
54 19 5
54 20 4
54 21 3
54 22 4
54 23 1
54 24 5
54 25 2
54 26 3
54 27 5
54 28 5
54 29 4
54 30 3
54 31 1
54 32 1
54 33 5
54 34 3
54 35 5
54 36 2
54 37 4
54 38 3
54 39 4
54 40 1
54 41 2
54 42 4
54 43 3
54 44 1
54 45 5
54 46 3
54 47 5
54 48 1
54 49 5
54 50 1
54 51 5
54 52 3
54 53 3
55 0 4
55 1 3
55 2 3
55 3 5
55 4 2
55 5 5
55 6 2
55 7 5
55 8 5
55 9 2
55 10 2
55 11 2
55 12 5
55 13 4
55 14 2
55 15 5
55 16 3
55 17 5
55 18 1
55 19 2
55 20 1
55 21 2
55 22 4
55 23 5
55 24 2
55 25 5
55 26 5
55 27 4
55 28 4
55 29 2
55 30 4
55 31 2
55 32 3
55 33 1
55 34 1
55 35 4
55 36 1
55 37 1
55 38 4
55 39 5
55 40 1
55 41 1
55 42 3
55 43 4
55 44 2
55 45 4
55 46 4
55 47 1
55 48 4
55 49 5
55 50 5
55 51 2
55 52 3
55 53 4
55 54 5
56 0 3
56 1 2
56 2 2
56 3 2
56 4 2
56 5 2
56 6 5
56 7 5
56 8 4
56 9 3
56 10 5
56 11 1
56 12 2
56 13 1
56 14 4
56 15 4
56 16 2
56 17 5
56 18 1
56 19 5
56 20 4
56 21 1
56 22 5
56 23 1
56 24 4
56 25 5
56 26 4
56 27 4
56 28 3
56 29 3
56 30 4
56 31 3
56 32 5
56 33 2
56 34 1
56 35 5
56 36 4
56 37 1
56 38 3
56 39 1
56 40 1
56 41 4
56 42 4
56 43 5
56 44 1
56 45 2
56 46 4
56 47 1
56 48 1
56 49 1
56 50 2
56 51 2
56 52 4
56 53 5
56 54 4
56 55 1
57 0 1
57 1 3
57 2 3
57 3 3
57 4 4
57 5 3
57 6 5
57 7 5
57 8 3
57 9 3
57 10 5
57 11 3
57 12 3
57 13 5
57 14 1
57 15 2
57 16 3
57 17 1
57 18 4
57 19 3
57 20 5
57 21 4
57 22 5
57 23 4
57 24 1
57 25 2
57 26 1
57 27 1
57 28 1
57 29 1
57 30 5
57 31 5
57 32 5
57 33 5
57 34 3
57 35 3
57 36 3
57 37 5
57 38 3
57 39 1
57 40 3
57 41 2
57 42 3
57 43 4
57 44 1
57 45 1
57 46 5
57 47 5
57 48 2
57 49 1
57 50 2
57 51 2
57 52 5
57 53 5
57 54 1
57 55 3
57 56 3
58 0 1
58 1 3
58 2 4
58 3 2
58 4 2
58 5 4
58 6 3
58 7 4
58 8 2
58 9 3
58 10 1
58 11 4
58 12 1
58 13 5
58 14 1
58 15 3
58 16 4
58 17 3
58 18 5
58 19 1
58 20 2
58 21 5
58 22 1
58 23 3
58 24 3
58 25 3
58 26 4
58 27 5
58 28 3
58 29 1
58 30 2
58 31 2
58 32 3
58 33 5
58 34 1
58 35 2
58 36 5
58 37 1
58 38 1
58 39 3
58 40 3
58 41 2
58 42 4
58 43 3
58 44 3
58 45 1
58 46 1
58 47 4
58 48 5
58 49 1
58 50 5
58 51 4
58 52 5
58 53 5
58 54 1
58 55 2
58 56 3
58 57 3
59 0 1
59 1 4
59 2 5
59 3 4
59 4 5
59 5 3
59 6 1
59 7 2
59 8 3
59 9 4
59 10 5
59 11 1
59 12 5
59 13 5
59 14 1
59 15 4
59 16 5
59 17 3
59 18 1
59 19 4
59 20 4
59 21 4
59 22 5
59 23 2
59 24 3
59 25 2
59 26 1
59 27 4
59 28 5
59 29 5
59 30 1
59 31 3
59 32 1
59 33 2
59 34 5
59 35 1
59 36 1
59 37 4
59 38 2
59 39 4
59 40 4
59 41 2
59 42 1
59 43 4
59 44 2
59 45 2
59 46 3
59 47 2
59 48 2
59 49 5
59 50 5
59 51 5
59 52 4
59 53 5
59 54 3
59 55 5
59 56 2
59 57 4
59 58 3
60 0 3
60 1 3
60 2 1
60 3 4
60 4 4
60 5 3
60 6 3
60 7 1
60 8 4
60 9 3
60 10 1
60 11 1
60 12 2
60 13 3
60 14 3
60 15 5
60 16 3
60 17 3
60 18 1
60 19 1
60 20 5
60 21 4
60 22 4
60 23 1
60 24 3
60 25 3
60 26 5
60 27 5
60 28 4
60 29 2
60 30 4
60 31 2
60 32 2
60 33 4
60 34 2
60 35 4
60 36 2
60 37 5
60 38 3
60 39 4
60 40 4
60 41 2
60 42 4
60 43 1
60 44 3
60 45 4
60 46 5
60 47 5
60 48 4
60 49 2
60 50 1
60 51 3
60 52 1
60 53 2
60 54 4
60 55 3
60 56 5
60 57 5
60 58 5
60 59 1
61 0 1
61 1 4
61 2 4
61 3 1
61 4 3
61 5 5
61 6 5
61 7 5
61 8 3
61 9 5
61 10 5
61 11 4
61 12 3
61 13 4
61 14 5
61 15 5
61 16 5
61 17 5
61 18 4
61 19 3
61 20 1
61 21 4
61 22 4
61 23 3
61 24 3
61 25 5
61 26 1
61 27 3
61 28 4
61 29 3
61 30 2
61 31 2
61 32 4
61 33 4
61 34 1
61 35 1
61 36 5
61 37 2
61 38 2
61 39 3
61 40 2
61 41 1
61 42 3
61 43 3
61 44 2
61 45 5
61 46 4
61 47 5
61 48 2
61 49 3
61 50 2
61 51 1
61 52 3
61 53 2
61 54 5
61 55 5
61 56 2
61 57 3
61 58 1
61 59 2
61 60 1
62 0 1
62 1 5
62 2 2
62 3 3
62 4 1
62 5 5
62 6 4
62 7 3
62 8 4
62 9 4
62 10 2
62 11 5
62 12 2
62 13 2
62 14 3
62 15 1
62 16 2
62 17 5
62 18 4
62 19 2
62 20 2
62 21 5
62 22 2
62 23 5
62 24 5
62 25 1
62 26 3
62 27 2
62 28 1
62 29 1
62 30 1
62 31 3
62 32 2
62 33 1
62 34 5
62 35 2
62 36 5
62 37 4
62 38 2
62 39 4
62 40 1
62 41 3
62 42 3
62 43 3
62 44 2
62 45 2
62 46 1
62 47 3
62 48 4
62 49 5
62 50 3
62 51 2
62 52 2
62 53 1
62 54 5
62 55 1
62 56 1
62 57 3
62 58 4
62 59 4
62 60 3
62 61 1
63 0 3
63 1 3
63 2 2
63 3 4
63 4 2
63 5 5
63 6 1
63 7 2
63 8 1
63 9 5
63 10 4
63 11 1
63 12 4
63 13 4
63 14 1
63 15 2
63 16 2
63 17 4
63 18 3
63 19 2
63 20 5
63 21 5
63 22 4
63 23 2
63 24 4
63 25 2
63 26 4
63 27 5
63 28 3
63 29 2
63 30 1
63 31 3
63 32 4
63 33 2
63 34 3
63 35 2
63 36 4
63 37 4
63 38 2
63 39 2
63 40 4
63 41 4
63 42 2
63 43 2
63 44 3
63 45 2
63 46 3
63 47 4
63 48 5
63 49 3
63 50 4
63 51 2
63 52 4
63 53 1
63 54 3
63 55 3
63 56 1
63 57 1
63 58 5
63 59 2
63 60 1
63 61 2
63 62 2
64 0 4
64 1 5
64 2 3
64 3 1
64 4 1
64 5 2
64 6 4
64 7 5
64 8 5
64 9 5
64 10 1
64 11 4
64 12 5
64 13 1
64 14 4
64 15 2
64 16 5
64 17 1
64 18 1
64 19 5
64 20 3
64 21 2
64 22 5
64 23 1
64 24 5
64 25 5
64 26 3
64 27 5
64 28 1
64 29 3
64 30 5
64 31 2
64 32 3
64 33 2
64 34 3
64 35 3
64 36 3
64 37 1
64 38 4
64 39 2
64 40 1
64 41 2
64 42 4
64 43 5
64 44 3
64 45 3
64 46 2
64 47 1
64 48 3
64 49 1
64 50 5
64 51 3
64 52 1
64 53 3
64 54 2
64 55 5
64 56 1
64 57 2
64 58 4
64 59 3
64 60 3
64 61 1
64 62 3
64 63 3
